\ENCODING=ISO-8859-1
\Problem name: 

Minimize
 obj: x1 + x2 + x3 + x4 + x5 + x6 + x7 + x8 + x9 + x10 + x11 + x12 + x13 + x14
      + x15 + x16 + x17 + x18 + x19 + x20 + x21 + x22 + x23 + x24 + x25 + x26
      + x27 + x28 + x29 + x30 + x31 + x32 + 2 x33 + 2 x34 + 2 x35 + 2 x36
      + 2 x37 + 2 x38 + 2 x39 + 2 x40 + 2 x41 + 2 x42 + 2 x43 + 2 x44 + 2 x45
      + 2 x46 + 2 x47 + 2 x48 + 2 x49 + 2 x50 + 2 x51 + 2 x52 + 2 x53 + 2 x54
      + 2 x55 + 2 x56 + 2 x57 + 3 x58 + 3 x59 + 3 x60 + 3 x61 + 3 x62 + 3 x63
      + 3 x64 + 3 x65 + 3 x66 + 3 x67 + 3 x68 + 3 x69 + 3 x70 + 3 x71 + 3 x72
      + 3 x73 + 3 x74 + 3 x75 + 3 x76 + 3 x77 + 3 x78 + 3 x79 + 3 x80 + 3 x81
      + 3 x82 + 3 x83 + 3 x84 + 3 x85 + 3 x86 + 3 x87 + 3 x88 + 3 x89 + 3 x90
      + 3 x91 + 4 x92 + 4 x93 + 4 x94 + 4 x95 + 4 x96 + 4 x97 + 4 x98 + 4 x99
      + 4 x100 + 4 x101 + 4 x102 + 4 x103 + 4 x104 + 4 x105 + 4 x106 + 4 x107
      + 4 x108 + 4 x109 + 4 x110 + 4 x111 + 4 x112 + 4 x113 + 5 x114 + 5 x115
      + 5 x116 + 5 x117 + 5 x118 + 5 x119 + 5 x120 + 5 x121 + 5 x122 + 5 x123
      + 5 x124 + 5 x125 + 5 x126 + 5 x127 + 5 x128 + 5 x129 + 5 x130 + 5 x131
      + 5 x132 + 5 x133 + 5 x134 + 5 x135 + 5 x136 + 5 x137 + 5 x138 + 5 x139
      + 5 x140 + 5 x141 + 5 x142 + 5 x143 + 5 x144 + 5 x145 + 5 x146 + 5 x147
      + 5 x148 + 5 x149 + 5 x150 + 6 x151 + 6 x152 + 6 x153 + 6 x154 + 6 x155
      + 6 x156 + 6 x157 + 6 x158 + 6 x159 + 6 x160 + 6 x161 + 6 x162 + 6 x163
      + 6 x164 + 6 x165 + 6 x166 + 6 x167 + 6 x168 + 6 x169 + 6 x170 + 6 x171
      + 6 x172 + 7 x173 + 7 x174 + 7 x175 + 7 x176 + 7 x177 + 7 x178 + 7 x179
      + 7 x180 + 7 x181 + 7 x182 + 7 x183 + 7 x184 + 7 x185 + 7 x186 + 7 x187
      + 7 x188 + 7 x189 + 7 x190 + 7 x191 + 7 x192 + 7 x193 + 7 x194 + 7 x195
      + 8 x196 + 8 x197 + 8 x198 + 8 x199 + 8 x200 + 8 x201 + 8 x202 + 8 x203
      + 8 x204 + 8 x205 + 8 x206 + 8 x207 + 8 x208 + 8 x209 + 8 x210 + 8 x211
      + 8 x212 + 8 x213 + 8 x214 + 9 x215 + 9 x216 + 9 x217 + 9 x218 + 9 x219
      + 9 x220 + 9 x221 + 9 x222 + 9 x223 + 9 x224 + 9 x225 + 10 x226 + 10 x227
      + 10 x228 + 10 x229 + 10 x230 + 10 x231 + 10 x232 + 10 x233 + 10 x234
      + 10 x235 + 10 x236 + 10 x237 + 10 x238 + 10 x239 + 10 x240 + 10 x241
      + 11 x242 + 11 x243 + 11 x244 + 11 x245 + 11 x246 + 11 x247 + 11 x248
      + 11 x249 + 11 x250 + 11 x251 + 11 x252 + 11 x253 + 11 x254 + 11 x255
      + 11 x256 + 11 x257 + 11 x258 + 11 x259 + 11 x260 + 12 x261 + 12 x262
      + 12 x263 + 12 x264 + 12 x265 + 12 x266 + 12 x267 + 12 x268 + 12 x269
      + 12 x270 + 12 x271 + 13 x272 + 13 x273 + 13 x274 + 13 x275 + 13 x276
      + 13 x277 + 13 x278 + 13 x279 + 13 x280 + 13 x281 + 13 x282 + 13 x283
      + 13 x284 + 13 x285 + 13 x286 + 13 x287 + 14 x288 + 14 x289 + 14 x290
      + 14 x291 + 14 x292 + 14 x293 + 14 x294 + 14 x295 + 14 x296 + 14 x297
      + 14 x298 + 14 x299 + 14 x300 + 14 x301 + 14 x302 + 15 x303 + 15 x304
      + 15 x305 + 15 x306 + 15 x307 + 15 x308 + 16 x309 + 16 x310 + 16 x311
      + 16 x312 + 16 x313 + 17 x314 + 17 x315 + 17 x316 + 17 x317 + 17 x318
      + 17 x319 + 18 x320 + 18 x321 + 18 x322 + 18 x323 + 18 x324 + 18 x325
      + 19 x326 + 19 x327 + 19 x328 + 20 x329 + 20 x330 + 20 x331 + 20 x332
      + 21 x333 + 21 x334 + 21 x335 + 21 x336 + 22 x337 + 22 x338 + 23 x339
      + 23 x340 + 24 x341 + 29 x342 + 30 x343
Subject To
 c1:   x62 + x80 + x95 + x222 + x279 + x339 >= 1
 c2:   x1 + x118 + x158 + x203 + x217 + x255 + x263 + x295 + x301 + x339 >= 1
 c3:   x11 + x38 + x114 + x191 + x194 + x248 >= 1
 c4:   x61 + x80 + x138 + x165 + x169 + x197 + x228 + x256 + x271 + x301 + x322
       + x331 >= 1
 c5:   x4 + x34 + x70 + x93 + x114 + x173 + x193 + x205 + x219 + x221 + x246
       + x315 >= 1
 c6:   x52 + x68 + x116 + x151 + x214 + x312 + x335 >= 1
 c7:   x47 + x60 + x186 + x228 + x250 + x336 >= 1
 c8:   x34 + x40 + x87 + x155 + x215 + x221 + x246 + x260 + x269 + x273 + x306
       + x333 >= 1
 c9:   x46 + x69 + x126 + x151 + x197 + x204 + x316 >= 1
 c10:  x44 + x89 + x116 + x162 + x306 + x308 + x329 + x334 + x339 >= 1
 c11:  x8 + x50 + x62 + x67 + x196 + x197 + x300 >= 1
 c12:  x10 + x61 + x119 + x176 + x249 + x280 + x294 + x314 + x329 + x335 >= 1
 c13:  x6 + x40 + x42 + x80 + x163 + x196 + x234 + x315 + x325 + x332 >= 1
 c14:  x40 + x143 + x146 + x185 + x290 + x303 + x315 >= 1
 c15:  x10 + x23 + x46 + x65 + x70 + x124 + x196 + x203 + x232 + x256 + x262
       + x263 + x267 >= 1
 c16:  x17 + x24 + x120 + x123 + x201 + x204 + x218 + x229 + x241 + x312 >= 1
 c17:  x2 + x80 + x137 + x151 + x185 + x217 + x302 >= 1
 c18:  x5 + x102 + x122 + x151 + x153 + x177 + x306 >= 1
 c19:  x2 + x51 + x73 + x100 + x165 + x186 + x196 + x242 + x243 + x244 + x314
       >= 1
 c20:  x100 + x106 + x136 + x143 + x243 + x318 + x326 + x335 >= 1
 c21:  x24 + x133 + x142 + x212 + x272 + x282 >= 1
 c22:  x98 + x123 + x135 + x145 + x172 + x225 + x261 + x262 + x283 + x297
       + x307 + x310 + x330 >= 1
 c23:  x27 + x33 + x45 + x94 + x102 + x105 + x274 + x297 >= 1
 c24:  x4 + x34 + x63 + x104 + x151 + x253 + x285 + x317 + x328 >= 1
 c25:  x37 + x62 + x93 + x198 + x216 + x245 + x315 + x320 + x328 >= 1
 c26:  x119 + x230 + x270 + x338 + x341 >= 1
 c27:  x3 + x28 + x33 + x43 + x96 + x104 + x207 + x243 + x249 + x298 + x342
       >= 1
 c28:  x2 + x5 + x109 + x112 + x220 + x228 + x248 + x304 >= 1
 c29:  x52 + x131 + x153 + x164 + x170 + x181 + x213 + x226 + x244 + x249
       + x336 >= 1
 c30:  x69 + x122 + x154 + x225 + x245 + x250 + x277 >= 1
 c31:  x6 + x161 + x185 + x229 + x267 >= 1
 c32:  x14 + x215 + x219 + x247 + x290 + x315 + x320 + x333 + x343 >= 1
 c33:  x129 + x146 + x190 + x195 + x205 + x256 + x265 + x280 + x284 + x290
       + x298 + x334 + x338 >= 1
 c34:  x27 + x29 + x40 + x43 + x63 + x71 + x104 + x108 + x159 + x203 + x241
       + x293 + x312 >= 1
 c35:  x58 + x59 + x173 + x308 >= 1
 c36:  x15 + x41 + x134 + x140 + x156 + x202 + x277 >= 1
 c37:  x3 + x8 + x33 + x79 + x92 + x227 + x266 + x303 >= 1
 c38:  x3 + x84 + x174 + x249 + x250 >= 1
 c39:  x83 + x119 + x133 + x164 + x173 + x175 + x239 + x242 + x253 + x272
       + x282 >= 1
 c40:  x124 + x201 + x235 + x269 + x272 + x321 >= 1
 c41:  x42 + x127 + x162 + x236 + x242 + x261 + x273 + x316 >= 1
 c42:  x13 + x178 + x180 + x209 + x236 + x255 + x272 + x328 >= 1
 c43:  x19 + x41 + x59 + x71 + x78 + x201 + x230 + x309 >= 1
 c44:  x87 + x103 + x114 + x128 + x173 + x222 + x261 + x262 + x282 + x302
       + x334 >= 1
 c45:  x3 + x51 + x54 + x115 + x119 + x149 + x157 + x199 + x266 + x343 >= 1
 c46:  x35 + x74 + x121 + x143 + x203 + x240 + x269 >= 1
 c47:  x21 + x106 + x172 + x212 + x229 + x251 + x273 + x331 + x333 >= 1
 c48:  x207 + x244 + x259 + x280 + x303 + x310 + x320 + x323 + x325 + x327
       + x337 >= 1
 c49:  x8 + x92 + x148 + x197 + x220 + x242 + x286 + x306 >= 1
 c50:  x29 + x36 + x75 + x180 + x200 + x288 >= 1
 c51:  x29 + x78 + x99 + x197 + x208 + x230 + x249 + x297 + x321 + x322 >= 1
 c52:  x66 + x70 + x173 + x183 >= 1
 c53:  x36 + x45 + x114 + x119 + x155 + x222 + x242 + x261 + x281 + x305 + x313
       + x333 >= 1
 c54:  x16 + x23 + x27 + x34 + x92 + x103 + x270 + x281 >= 1
 c55:  x20 + x36 + x60 + x88 + x216 + x221 + x267 >= 1
 c56:  x6 + x125 + x152 + x158 + x184 + x202 + x263 + x288 + x324 + x340 >= 1
 c57:  x37 + x42 + x134 + x206 + x220 + x250 + x257 + x329 + x332 >= 1
 c58:  x4 + x95 + x116 + x132 + x208 + x215 + x298 + x342 >= 1
 c59:  x6 + x12 + x223 + x290 + x342 >= 1
 c60:  x30 + x85 + x97 + x119 + x130 + x251 + x340 >= 1
 c61:  x144 + x150 + x200 + x255 + x287 + x288 + x300 + x302 >= 1
 c62:  x37 + x47 + x76 + x154 + x192 + x247 + x271 + x341 >= 1
 c63:  x2 + x15 + x16 + x17 + x37 + x62 + x120 + x289 >= 1
 c64:  x3 + x13 + x19 + x93 + x144 + x148 + x156 + x161 + x168 + x227 + x237
       + x280 + x303 >= 1
 c65:  x84 + x217 + x226 + x232 + x246 + x251 + x336 >= 1
 c66:  x59 + x64 + x82 + x175 + x262 + x264 + x289 >= 1
 c67:  x2 + x4 + x16 + x41 + x115 >= 1
 c68:  x94 + x159 + x179 + x201 + x247 + x287 + x300 + x311 + x324 >= 1
 c69:  x39 + x40 + x70 + x152 + x156 + x175 + x187 + x272 + x317 >= 1
 c70:  x185 + x244 + x279 + x281 + x307 + x322 + x338 >= 1
 c71:  x5 + x17 + x19 + x58 + x114 + x131 + x190 + x243 + x288 + x316 >= 1
 c72:  x13 + x29 + x96 + x109 + x196 + x204 + x216 >= 1
 c73:  x109 + x189 + x211 + x212 + x255 + x323 >= 1
 c74:  x16 + x24 + x44 + x55 + x94 + x123 + x247 >= 1
 c75:  x3 + x36 + x101 + x102 + x122 + x152 + x171 + x229 >= 1
 c76:  x58 + x61 + x70 + x90 + x157 + x170 + x183 + x188 + x191 + x206 + x228
       + x274 + x288 + x296 >= 1
 c77:  x2 + x9 + x17 + x40 + x48 + x108 + x160 + x181 + x233 + x253 + x272
       + x325 >= 1
 c78:  x38 + x77 + x201 + x254 + x306 >= 1
 c79:  x7 + x37 + x90 + x114 + x141 + x217 + x298 + x309 >= 1
 c80:  x35 + x83 >= 1
 c81:  x20 + x23 + x67 + x125 + x244 + x251 + x296 >= 1
 c82:  x15 + x79 + x91 + x127 + x159 + x161 + x162 + x183 + x205 + x242 + x294
       >= 1
 c83:  x73 + x118 + x163 + x227 + x275 + x276 + x293 + x301 + x326 >= 1
 c84:  x22 + x58 + x145 + x182 + x210 + x242 + x292 + x321 >= 1
 c85:  x52 + x118 + x121 + x136 + x151 + x178 + x181 + x199 + x209 + x332 >= 1
 c86:  x1 + x99 + x134 + x173 + x174 >= 1
 c87:  x73 + x116 + x168 + x200 + x243 + x248 + x312 >= 1
 c88:  x18 + x37 + x77 + x154 + x160 + x189 + x207 + x278 >= 1
 c89:  x5 + x17 + x63 + x133 + x214 + x330 >= 1
 c90:  x5 + x14 + x25 + x33 + x35 + x45 + x49 + x62 + x88 + x128 + x139 + x167
       + x215 + x252 + x255 + x269 + x283 + x321 + x330 >= 1
 c91:  x8 + x32 + x109 + x226 + x228 + x273 + x276 + x327 >= 1
 c92:  x9 + x44 + x46 + x98 + x192 + x193 + x202 + x232 + x246 + x268 + x274
       >= 1
 c93:  x5 + x11 + x18 + x92 + x94 + x107 + x116 + x152 + x157 + x164 + x194
       + x205 + x254 + x311 + x337 >= 1
 c94:  x7 + x71 + x151 + x197 + x274 + x289 + x302 + x304 >= 1
 c95:  x74 + x128 + x153 + x177 + x206 + x239 + x312 + x341 >= 1
 c96:  x66 + x188 + x213 + x251 + x324 + x330 + x331 >= 1
 c97:  x3 + x181 + x264 + x273 + x284 + x323 >= 1
 c98:  x123 + x141 + x156 + x160 + x205 + x241 + x250 + x268 + x286 + x305
       + x316 + x320 >= 1
 c99:  x6 + x61 + x63 + x67 + x119 + x161 + x183 + x309 + x319 + x323 >= 1
 c100: x10 + x18 + x26 + x50 + x60 + x85 + x167 + x310 + x342 >= 1
 c101: x226 + x234 + x254 + x291 + x306 + x343 >= 1
 c102: x72 + x95 + x97 + x106 + x225 >= 1
 c103: x208 + x221 + x232 + x263 + x271 + x301 + x309 + x317 + x328 + x332 >= 1
 c104: x158 + x180 + x187 + x238 + x251 + x299 + x305 + x311 + x319 + x320
       + x323 + x330 + x336 + x342 >= 1
 c105: x37 + x122 + x127 + x203 + x275 + x305 + x318 >= 1
 c106: x4 + x31 + x160 + x173 + x183 + x233 + x238 + x295 + x306 >= 1
 c107: x66 + x117 + x135 + x196 + x198 + x200 + x244 + x246 + x270 + x291
       + x311 + x336 >= 1
 c108: x48 + x118 + x151 + x175 + x245 + x288 + x320 >= 1
 c109: x19 + x51 + x74 + x115 + x117 + x153 + x197 + x321 >= 1
 c110: x39 + x141 + x158 + x242 + x261 + x310 >= 1
 c111: x41 + x65 + x240 + x279 >= 1
 c112: x59 + x64 + x68 + x260 + x274 + x292 >= 1
 c113: x14 + x53 + x98 + x108 + x117 + x135 + x278 >= 1
 c114: x58 + x93 + x121 + x213 + x238 + x244 + x245 + x277 + x329 >= 1
 c115: x42 + x85 + x92 + x102 + x128 + x138 + x171 + x199 + x213 + x223 + x226
       + x233 + x284 + x327 >= 1
 c116: x34 + x95 + x121 + x223 + x278 + x294 >= 1
 c117: x10 + x94 + x138 + x184 + x196 + x277 >= 1
 c118: x181 + x184 + x202 + x260 + x263 + x266 + x308 + x330 + x335 >= 1
 c119: x4 + x137 + x191 + x199 + x206 + x214 + x228 + x289 + x317 + x339 >= 1
 c120: x72 + x176 + x190 + x191 + x227 + x238 + x281 + x320 + x333 >= 1
 c121: x1 + x94 + x102 + x166 + x182 + x227 + x265 >= 1
 c122: x3 + x20 + x152 + x178 + x200 + x202 + x281 + x325 + x327 >= 1
 c123: x92 + x151 + x226 + x242 + x283 + x313 + x324 + x326 + x339 >= 1
 c124: x47 + x59 + x100 + x256 + x266 + x304 + x305 + x314 >= 1
 c125: x33 + x65 + x188 + x211 + x289 >= 1
 c126: x1 + x14 + x43 + x94 + x98 + x125 + x163 + x169 + x187 + x235 + x278
       + x318 + x336 + x343 >= 1
 c127: x66 + x74 + x171 + x173 + x196 + x248 + x251 + x277 + x314 + x319 >= 1
 c128: x48 + x167 + x230 + x249 + x343 >= 1
 c129: x153 + x249 + x278 + x319 + x330 >= 1
 c130: x68 + x79 + x93 + x126 + x175 + x177 + x198 + x246 + x247 + x273 + x292
       + x298 >= 1
 c131: x3 + x28 + x44 + x50 + x156 + x294 >= 1
 c132: x34 + x115 + x125 + x127 + x174 + x204 + x291 + x324 >= 1
 c133: x62 + x84 + x123 + x161 + x233 + x234 + x265 + x293 + x316 >= 1
 c134: x1 + x9 + x49 + x67 + x93 + x224 + x246 >= 1
 c135: x13 + x101 + x105 + x209 + x272 >= 1
 c136: x37 + x92 + x130 + x174 + x227 + x273 + x295 + x327 >= 1
 c137: x2 + x52 + x93 + x125 + x210 + x212 + x283 + x289 >= 1
 c138: x156 + x272 + x282 + x326 + x333 + x340 >= 1
 c139: x22 + x78 + x114 + x132 + x175 + x180 + x189 + x217 + x276 + x289 >= 1
 c140: x8 + x13 + x81 + x116 + x179 + x180 + x185 + x216 + x259 + x317 + x324
       >= 1
 c141: x41 + x95 + x120 + x194 >= 1
 c142: x209 + x298 + x299 + x307 + x332 + x340 + x341 + x342 >= 1
 c143: x119 + x174 + x216 + x245 + x271 + x294 + x300 + x329 >= 1
 c144: x56 + x134 + x211 + x233 + x234 + x275 + x280 + x288 >= 1
 c145: x76 + x84 + x150 + x204 + x267 + x283 + x317 + x325 >= 1
 c146: x92 + x94 + x108 + x135 + x151 + x217 + x224 + x244 + x247 + x252 + x254
       + x268 + x274 + x285 + x287 + x321 >= 1
 c147: x1 + x18 + x59 + x161 + x169 + x176 + x207 + x268 >= 1
 c148: x10 + x45 + x83 + x219 + x275 + x320 + x334 >= 1
 c149: x136 + x239 + x264 + x265 + x343 >= 1
 c150: x31 + x192 + x258 + x274 + x309 + x328 + x338 >= 1
 c151: x15 + x164 + x231 + x237 + x242 + x253 + x274 + x285 >= 1
 c152: x72 + x110 + x147 + x174 + x188 + x207 + x261 + x312 >= 1
 c153: x117 + x177 + x267 >= 1
 c154: x33 + x96 + x140 + x146 + x229 + x235 + x293 >= 1
 c155: x55 + x169 + x192 + x223 + x296 + x333 >= 1
 c156: x8 + x12 + x17 + x26 + x89 + x99 + x152 + x177 + x178 + x186 + x281
       + x334 + x339 >= 1
 c157: x22 + x71 + x221 + x222 + x234 + x315 + x326 >= 1
 c158: x35 + x105 + x212 + x221 + x226 + x262 + x264 + x321 + x340 >= 1
 c159: x36 + x64 + x100 + x104 + x144 + x160 + x272 >= 1
 c160: x8 + x52 + x72 + x142 + x183 + x209 >= 1
 c161: x18 + x33 + x123 + x132 + x205 + x237 + x284 + x330 + x333 + x341 >= 1
 c162: x120 + x192 + x201 + x233 + x265 + x286 >= 1
 c163: x67 + x211 + x218 + x227 + x235 + x334 >= 1
 c164: x194 + x220 + x261 + x272 + x281 + x285 + x290 + x327 + x341 + x342 >= 1
 c165: x58 + x186 + x214 + x239 >= 1
 c166: x34 + x68 + x128 + x166 + x209 + x211 + x342 >= 1
 c167: x4 + x30 + x95 + x200 + x226 + x276 >= 1
 c168: x15 + x46 + x59 + x116 + x120 + x177 + x273 + x278 + x295 + x342 >= 1
 c169: x22 + x60 + x61 + x64 + x65 + x96 + x190 + x193 + x216 + x273 >= 1
 c170: x12 + x34 + x54 + x248 + x265 + x303 >= 1
 c171: x2 + x38 + x50 + x126 + x175 + x213 + x340 >= 1
 c172: x66 + x122 + x185 + x236 + x262 >= 1
 c173: x6 + x28 + x44 + x58 + x64 + x202 >= 1
 c174: x9 + x110 + x152 + x236 >= 1
 c175: x58 + x66 + x69 + x92 + x166 + x193 + x303 >= 1
 c176: x36 + x53 + x59 + x140 + x208 + x224 >= 1
 c177: x16 + x40 + x60 + x199 + x217 + x296 + x303 + x333 >= 1
 c178: x6 + x8 + x28 + x163 + x184 + x252 + x279 + x327 + x333 >= 1
 c179: x82 + x89 + x169 + x176 + x252 + x270 + x312 + x332 >= 1
 c180: x115 + x178 + x237 + x259 + x286 >= 1
 c181: x20 + x168 + x273 + x309 >= 1
 c182: x7 + x36 + x72 + x159 + x177 + x303 >= 1
 c183: x115 + x179 + x199 + x213 + x296 + x304 + x313 + x337 >= 1
 c184: x115 + x187 + x243 + x289 + x315 + x343 >= 1
 c185: x7 + x34 + x43 + x97 + x99 + x120 + x132 + x196 + x231 + x327 + x329
       + x338 >= 1
 c186: x35 + x79 + x115 + x179 + x235 + x267 >= 1
 c187: x74 + x168 + x233 + x284 + x332 >= 1
 c188: x1 + x26 + x139 + x198 + x215 + x261 + x288 + x305 + x320 >= 1
 c189: x215 + x229 + x270 + x278 + x295 >= 1
 c190: x82 + x113 + x137 + x181 + x206 + x276 + x289 + x334 >= 1
 c191: x85 + x128 + x142 + x145 + x165 + x215 + x240 + x279 + x294 + x315 >= 1
 c192: x58 + x73 + x118 + x232 + x237 + x257 >= 1
 c193: x42 + x63 + x65 + x71 + x142 + x165 + x282 + x322 + x334 + x343 >= 1
 c194: x33 + x46 + x65 + x111 + x116 + x118 + x137 + x182 + x188 + x245 + x279
       >= 1
 c195: x215 + x240 + x258 + x259 + x314 + x319 + x339 + x340 >= 1
 c196: x68 + x158 + x173 + x189 + x241 + x252 + x282 >= 1
 c197: x34 + x56 + x152 + x206 + x218 + x248 >= 1
 c198: x87 + x148 + x199 + x224 + x226 + x234 + x247 + x252 + x267 + x299
       + x337 >= 1
 c199: x31 + x38 + x64 + x136 + x222 + x275 >= 1
 c200: x49 + x88 + x231 + x317 + x333 >= 1
 c201: x58 + x90 + x134 + x175 + x275 + x292 + x326 >= 1
 c202: x4 + x10 + x131 + x222 + x258 + x273 + x333 >= 1
 c203: x41 + x60 + x136 + x142 + x153 + x171 + x202 + x228 + x274 + x275 + x313
       + x316 + x318 + x326 >= 1
 c204: x11 + x60 + x103 + x210 + x296 >= 1
 c205: x4 + x126 + x282 + x291 >= 1
 c206: x26 + x159 + x254 + x314 + x322 >= 1
 c207: x22 + x50 + x176 >= 1
 c208: x11 + x124 + x154 + x209 + x228 + x262 + x310 >= 1
 c209: x1 + x43 + x76 + x167 + x174 + x216 + x242 + x266 >= 1
 c210: x96 + x129 + x184 + x200 + x293 >= 1
 c211: x5 + x14 + x25 + x41 + x69 + x70 + x76 + x130 + x141 + x215 + x227 >= 1
 c212: x96 + x124 + x130 + x231 + x276 + x307 + x314 >= 1
 c213: x47 + x101 + x167 + x176 + x198 + x214 + x268 + x288 + x289 + x333 >= 1
 c214: x33 + x78 + x86 + x115 + x127 + x129 >= 1
 c215: x49 + x78 + x132 + x181 + x184 + x198 + x291 >= 1
 c216: x1 + x174 + x266 + x280 + x312 + x339 >= 1
 c217: x7 + x39 + x242 + x243 + x264 + x313 >= 1
 c218: x60 + x111 + x130 + x140 + x216 + x232 + x265 + x286 + x339 >= 1
 c219: x61 + x125 + x179 + x263 >= 1
 c220: x100 + x118 + x119 + x139 + x147 + x257 + x331 >= 1
 c221: x36 + x77 + x98 + x126 + x261 + x300 + x311 + x331 >= 1
 c222: x35 + x54 + x106 + x116 + x157 + x168 + x208 + x243 + x253 + x316 >= 1
 c223: x25 + x120 + x153 + x201 + x310 >= 1
 c224: x61 + x118 + x149 + x155 + x164 + x276 >= 1
 c225: x21 + x226 + x256 + x283 >= 1
 c226: x35 + x45 + x72 + x145 + x159 + x285 + x343 >= 1
 c227: x6 + x97 + x148 + x210 + x228 + x329 >= 1
 c228: x30 + x39 + x57 + x189 + x247 + x252 + x261 + x277 + x311 >= 1
 c229: x39 + x62 + x68 + x86 + x253 + x287 + x304 + x316 >= 1
 c230: x7 + x34 + x163 + x217 + x229 + x242 + x272 + x274 + x291 >= 1
 c231: x63 + x76 + x106 + x122 + x321 >= 1
 c232: x47 + x166 + x182 + x199 + x231 + x296 + x299 + x326 >= 1
 c233: x66 + x69 + x99 + x132 + x157 + x191 + x229 + x265 + x288 + x311 + x313
       + x321 + x334 + x337 >= 1
 c234: x3 + x18 + x24 + x38 + x125 + x139 + x235 + x304 >= 1
 c235: x135 + x149 + x310 + x312 + x325 + x329 >= 1
 c236: x51 + x71 + x79 + x100 + x218 + x248 + x284 + x290 + x309 + x315 >= 1
 c237: x9 + x36 + x53 + x97 + x124 + x204 + x275 + x295 + x308 >= 1
 c238: x80 + x117 + x121 + x219 + x264 + x287 + x304 >= 1
 c239: x39 + x53 + x92 + x126 + x131 + x156 + x191 + x229 + x292 + x318 + x330
       >= 1
 c240: x58 + x83 + x92 + x180 + x182 + x232 + x254 + x290 + x295 + x322 + x335
       >= 1
 c241: x77 + x97 + x138 + x151 + x158 + x190 + x223 + x276 + x339 >= 1
 c242: x6 + x64 + x66 + x81 + x141 + x154 >= 1
 c243: x57 + x59 + x63 + x100 + x112 >= 1
 c244: x27 + x38 + x111 + x137 + x231 + x236 + x309 + x318 + x331 >= 1
 c245: x113 + x136 + x198 + x237 + x310 + x328 + x340 >= 1
 c246: x4 + x14 + x73 + x122 + x140 + x164 + x165 >= 1
 c247: x2 + x107 + x133 + x170 + x172 + x204 + x231 + x264 + x290 >= 1
 c248: x38 + x45 + x77 + x92 + x114 + x154 + x268 >= 1
 c249: x16 + x120 + x124 + x129 + x234 + x297 + x317 >= 1
 c250: x33 + x42 + x115 + x127 + x200 + x227 + x249 + x294 + x298 + x299 >= 1
 c251: x86 + x121 + x133 + x134 + x178 + x194 + x245 + x256 + x257 + x277
       + x292 + x331 + x336 >= 1
 c252: x15 + x21 + x38 + x75 + x107 + x170 + x173 + x176 + x239 + x243 + x246
       + x340 >= 1
 c253: x122 + x219 + x257 + x279 + x291 + x302 >= 1
 c254: x20 + x69 + x75 + x104 + x183 + x305 >= 1
 c255: x44 + x51 + x120 + x163 + x170 + x210 + x310 >= 1
 c256: x70 + x195 + x231 + x269 + x288 + x290 + x307 + x322 + x341 >= 1
 c257: x32 + x117 + x157 + x160 + x230 + x248 + x254 + x275 + x309 >= 1
 c258: x87 + x101 + x150 + x178 + x245 + x266 + x323 + x329 >= 1
 c259: x35 + x110 + x129 + x155 + x174 + x220 + x319 >= 1
 c260: x39 + x176 + x198 + x220 + x230 + x242 + x314 + x322 >= 1
 c261: x11 + x42 + x104 + x155 + x182 + x203 + x307 + x335 >= 1
 c262: x7 + x33 + x48 + x75 + x99 + x101 + x225 + x265 + x272 >= 1
 c263: x82 + x92 + x99 + x146 + x200 + x303 + x331 >= 1
 c264: x81 + x101 + x105 + x245 + x263 + x297 >= 1
 c265: x89 + x131 + x187 + x264 + x304 + x307 + x310 + x317 >= 1
 c266: x60 + x107 + x159 + x202 + x238 + x242 + x277 + x293 + x301 >= 1
 c267: x46 + x54 + x174 + x175 + x252 + x311 + x315 + x335 >= 1
 c268: x65 + x69 + x91 + x198 + x230 + x292 + x308 + x336 >= 1
 c269: x11 + x19 + x73 + x147 + x154 + x293 >= 1
 c270: x12 + x117 + x179 + x190 + x201 + x218 + x235 + x323 >= 1
 c271: x2 + x19 + x58 + x102 + x155 + x173 + x206 + x220 + x297 >= 1
 c272: x68 + x207 + x240 + x250 + x255 + x326 + x338 >= 1
 c273: x25 + x33 + x97 + x247 + x248 + x263 + x272 + x273 + x340 >= 1
 c274: x1 + x88 + x138 + x172 + x208 + x218 >= 1
 c275: x9 + x61 + x114 + x117 + x126 + x153 + x155 + x158 + x182 + x186 + x244
       >= 1
 c276: x110 + x129 + x212 + x329 + x334 + x342 + x343 >= 1
 c277: x23 + x48 + x65 + x95 + x114 + x130 + x219 + x291 + x316 >= 1
 c278: x13 + x121 + x269 + x291 + x309 + x321 + x339 >= 1
 c279: x5 + x35 + x98 + x103 + x118 + x199 + x221 + x250 + x264 + x275 + x333
       >= 1
 c280: x96 + x124 + x133 + x197 + x205 + x266 + x297 + x304 + x324 + x335 >= 1
 c281: x2 + x81 + x86 + x95 + x117 + x177 + x236 + x251 + x255 + x272 >= 1
 c282: x5 + x59 + x151 + x174 + x178 + x208 + x311 >= 1
 c283: x37 + x67 + x117 + x196 + x262 + x314 >= 1
 c284: x21 + x61 + x81 + x103 + x105 + x131 + x157 + x166 + x294 >= 1
 c285: x218 + x318 >= 1
 c286: x43 + x55 + x115 + x207 + x224 + x289 + x328 + x329 + x332 >= 1
 c287: x7 + x139 + x258 + x259 + x300 + x327 >= 1
 c288: x153 + x162 + x203 + x226 + x322 >= 1
 c289: x9 + x10 + x11 + x21 + x75 + x93 + x96 + x135 + x149 + x151 + x179
       + x192 + x219 + x246 + x292 >= 1
 c290: x1 + x121 + x218 + x230 + x261 + x320 + x326 + x328 >= 1
 c291: x49 + x53 + x59 + x144 + x147 + x187 + x197 + x227 + x262 + x304 + x327
       + x331 >= 1
 c292: x3 + x7 + x9 + x152 + x154 + x198 + x244 + x258 + x314 + x335 >= 1
 c293: x106 + x114 + x143 + x211 + x215 + x232 + x241 + x323 >= 1
 c294: x12 + x90 + x92 + x116 + x152 + x162 + x180 + x243 + x280 + x309 + x338
       >= 1
 c295: x38 + x103 + x162 + x197 + x253 + x316 + x334 >= 1
 c296: x35 + x112 + x189 + x193 + x278 + x279 + x290 + x337 >= 1
 c297: x39 + x64 + x67 + x171 + x179 + x293 + x299 + x337 >= 1
 c298: x12 + x36 + x62 + x186 + x188 + x215 >= 1
 c299: x10 + x60 + x63 + x105 + x305 >= 1
 c300: x98 + x123 + x210 + x236 + x250 + x263 + x303 + x310 + x334 >= 1
Bounds
 0 <= x1 <= 1
 0 <= x2 <= 1
 0 <= x3 <= 1
 0 <= x4 <= 1
 0 <= x5 <= 1
 0 <= x6 <= 1
 0 <= x7 <= 1
 0 <= x8 <= 1
 0 <= x9 <= 1
 0 <= x10 <= 1
 0 <= x11 <= 1
 0 <= x12 <= 1
 0 <= x13 <= 1
 0 <= x14 <= 1
 0 <= x15 <= 1
 0 <= x16 <= 1
 0 <= x17 <= 1
 0 <= x18 <= 1
 0 <= x19 <= 1
 0 <= x20 <= 1
 0 <= x21 <= 1
 0 <= x22 <= 1
 0 <= x23 <= 1
 0 <= x24 <= 1
 0 <= x25 <= 1
 0 <= x26 <= 1
 0 <= x27 <= 1
 0 <= x28 <= 1
 0 <= x29 <= 1
 0 <= x30 <= 1
 0 <= x31 <= 1
 0 <= x32 <= 1
 0 <= x33 <= 1
 0 <= x34 <= 1
 0 <= x35 <= 1
 0 <= x36 <= 1
 0 <= x37 <= 1
 0 <= x38 <= 1
 0 <= x39 <= 1
 0 <= x40 <= 1
 0 <= x41 <= 1
 0 <= x42 <= 1
 0 <= x43 <= 1
 0 <= x44 <= 1
 0 <= x45 <= 1
 0 <= x46 <= 1
 0 <= x47 <= 1
 0 <= x48 <= 1
 0 <= x49 <= 1
 0 <= x50 <= 1
 0 <= x51 <= 1
 0 <= x52 <= 1
 0 <= x53 <= 1
 0 <= x54 <= 1
 0 <= x55 <= 1
 0 <= x56 <= 1
 0 <= x57 <= 1
 0 <= x58 <= 1
 0 <= x59 <= 1
 0 <= x60 <= 1
 0 <= x61 <= 1
 0 <= x62 <= 1
 0 <= x63 <= 1
 0 <= x64 <= 1
 0 <= x65 <= 1
 0 <= x66 <= 1
 0 <= x67 <= 1
 0 <= x68 <= 1
 0 <= x69 <= 1
 0 <= x70 <= 1
 0 <= x71 <= 1
 0 <= x72 <= 1
 0 <= x73 <= 1
 0 <= x74 <= 1
 0 <= x75 <= 1
 0 <= x76 <= 1
 0 <= x77 <= 1
 0 <= x78 <= 1
 0 <= x79 <= 1
 0 <= x80 <= 1
 0 <= x81 <= 1
 0 <= x82 <= 1
 0 <= x83 <= 1
 0 <= x84 <= 1
 0 <= x85 <= 1
 0 <= x86 <= 1
 0 <= x87 <= 1
 0 <= x88 <= 1
 0 <= x89 <= 1
 0 <= x90 <= 1
 0 <= x91 <= 1
 0 <= x92 <= 1
 0 <= x93 <= 1
 0 <= x94 <= 1
 0 <= x95 <= 1
 0 <= x96 <= 1
 0 <= x97 <= 1
 0 <= x98 <= 1
 0 <= x99 <= 1
 0 <= x100 <= 1
 0 <= x101 <= 1
 0 <= x102 <= 1
 0 <= x103 <= 1
 0 <= x104 <= 1
 0 <= x105 <= 1
 0 <= x106 <= 1
 0 <= x107 <= 1
 0 <= x108 <= 1
 0 <= x109 <= 1
 0 <= x110 <= 1
 0 <= x111 <= 1
 0 <= x112 <= 1
 0 <= x113 <= 1
 0 <= x114 <= 1
 0 <= x115 <= 1
 0 <= x116 <= 1
 0 <= x117 <= 1
 0 <= x118 <= 1
 0 <= x119 <= 1
 0 <= x120 <= 1
 0 <= x121 <= 1
 0 <= x122 <= 1
 0 <= x123 <= 1
 0 <= x124 <= 1
 0 <= x125 <= 1
 0 <= x126 <= 1
 0 <= x127 <= 1
 0 <= x128 <= 1
 0 <= x129 <= 1
 0 <= x130 <= 1
 0 <= x131 <= 1
 0 <= x132 <= 1
 0 <= x133 <= 1
 0 <= x134 <= 1
 0 <= x135 <= 1
 0 <= x136 <= 1
 0 <= x137 <= 1
 0 <= x138 <= 1
 0 <= x139 <= 1
 0 <= x140 <= 1
 0 <= x141 <= 1
 0 <= x142 <= 1
 0 <= x143 <= 1
 0 <= x144 <= 1
 0 <= x145 <= 1
 0 <= x146 <= 1
 0 <= x147 <= 1
 0 <= x148 <= 1
 0 <= x149 <= 1
 0 <= x150 <= 1
 0 <= x151 <= 1
 0 <= x152 <= 1
 0 <= x153 <= 1
 0 <= x154 <= 1
 0 <= x155 <= 1
 0 <= x156 <= 1
 0 <= x157 <= 1
 0 <= x158 <= 1
 0 <= x159 <= 1
 0 <= x160 <= 1
 0 <= x161 <= 1
 0 <= x162 <= 1
 0 <= x163 <= 1
 0 <= x164 <= 1
 0 <= x165 <= 1
 0 <= x166 <= 1
 0 <= x167 <= 1
 0 <= x168 <= 1
 0 <= x169 <= 1
 0 <= x170 <= 1
 0 <= x171 <= 1
 0 <= x172 <= 1
 0 <= x173 <= 1
 0 <= x174 <= 1
 0 <= x175 <= 1
 0 <= x176 <= 1
 0 <= x177 <= 1
 0 <= x178 <= 1
 0 <= x179 <= 1
 0 <= x180 <= 1
 0 <= x181 <= 1
 0 <= x182 <= 1
 0 <= x183 <= 1
 0 <= x184 <= 1
 0 <= x185 <= 1
 0 <= x186 <= 1
 0 <= x187 <= 1
 0 <= x188 <= 1
 0 <= x189 <= 1
 0 <= x190 <= 1
 0 <= x191 <= 1
 0 <= x192 <= 1
 0 <= x193 <= 1
 0 <= x194 <= 1
 0 <= x195 <= 1
 0 <= x196 <= 1
 0 <= x197 <= 1
 0 <= x198 <= 1
 0 <= x199 <= 1
 0 <= x200 <= 1
 0 <= x201 <= 1
 0 <= x202 <= 1
 0 <= x203 <= 1
 0 <= x204 <= 1
 0 <= x205 <= 1
 0 <= x206 <= 1
 0 <= x207 <= 1
 0 <= x208 <= 1
 0 <= x209 <= 1
 0 <= x210 <= 1
 0 <= x211 <= 1
 0 <= x212 <= 1
 0 <= x213 <= 1
 0 <= x214 <= 1
 0 <= x215 <= 1
 0 <= x216 <= 1
 0 <= x217 <= 1
 0 <= x218 <= 1
 0 <= x219 <= 1
 0 <= x220 <= 1
 0 <= x221 <= 1
 0 <= x222 <= 1
 0 <= x223 <= 1
 0 <= x224 <= 1
 0 <= x225 <= 1
 0 <= x226 <= 1
 0 <= x227 <= 1
 0 <= x228 <= 1
 0 <= x229 <= 1
 0 <= x230 <= 1
 0 <= x231 <= 1
 0 <= x232 <= 1
 0 <= x233 <= 1
 0 <= x234 <= 1
 0 <= x235 <= 1
 0 <= x236 <= 1
 0 <= x237 <= 1
 0 <= x238 <= 1
 0 <= x239 <= 1
 0 <= x240 <= 1
 0 <= x241 <= 1
 0 <= x242 <= 1
 0 <= x243 <= 1
 0 <= x244 <= 1
 0 <= x245 <= 1
 0 <= x246 <= 1
 0 <= x247 <= 1
 0 <= x248 <= 1
 0 <= x249 <= 1
 0 <= x250 <= 1
 0 <= x251 <= 1
 0 <= x252 <= 1
 0 <= x253 <= 1
 0 <= x254 <= 1
 0 <= x255 <= 1
 0 <= x256 <= 1
 0 <= x257 <= 1
 0 <= x258 <= 1
 0 <= x259 <= 1
 0 <= x260 <= 1
 0 <= x261 <= 1
 0 <= x262 <= 1
 0 <= x263 <= 1
 0 <= x264 <= 1
 0 <= x265 <= 1
 0 <= x266 <= 1
 0 <= x267 <= 1
 0 <= x268 <= 1
 0 <= x269 <= 1
 0 <= x270 <= 1
 0 <= x271 <= 1
 0 <= x272 <= 1
 0 <= x273 <= 1
 0 <= x274 <= 1
 0 <= x275 <= 1
 0 <= x276 <= 1
 0 <= x277 <= 1
 0 <= x278 <= 1
 0 <= x279 <= 1
 0 <= x280 <= 1
 0 <= x281 <= 1
 0 <= x282 <= 1
 0 <= x283 <= 1
 0 <= x284 <= 1
 0 <= x285 <= 1
 0 <= x286 <= 1
 0 <= x287 <= 1
 0 <= x288 <= 1
 0 <= x289 <= 1
 0 <= x290 <= 1
 0 <= x291 <= 1
 0 <= x292 <= 1
 0 <= x293 <= 1
 0 <= x294 <= 1
 0 <= x295 <= 1
 0 <= x296 <= 1
 0 <= x297 <= 1
 0 <= x298 <= 1
 0 <= x299 <= 1
 0 <= x300 <= 1
 0 <= x301 <= 1
 0 <= x302 <= 1
 0 <= x303 <= 1
 0 <= x304 <= 1
 0 <= x305 <= 1
 0 <= x306 <= 1
 0 <= x307 <= 1
 0 <= x308 <= 1
 0 <= x309 <= 1
 0 <= x310 <= 1
 0 <= x311 <= 1
 0 <= x312 <= 1
 0 <= x313 <= 1
 0 <= x314 <= 1
 0 <= x315 <= 1
 0 <= x316 <= 1
 0 <= x317 <= 1
 0 <= x318 <= 1
 0 <= x319 <= 1
 0 <= x320 <= 1
 0 <= x321 <= 1
 0 <= x322 <= 1
 0 <= x323 <= 1
 0 <= x324 <= 1
 0 <= x325 <= 1
 0 <= x326 <= 1
 0 <= x327 <= 1
 0 <= x328 <= 1
 0 <= x329 <= 1
 0 <= x330 <= 1
 0 <= x331 <= 1
 0 <= x332 <= 1
 0 <= x333 <= 1
 0 <= x334 <= 1
 0 <= x335 <= 1
 0 <= x336 <= 1
 0 <= x337 <= 1
 0 <= x338 <= 1
 0 <= x339 <= 1
 0 <= x340 <= 1
 0 <= x341 <= 1
 0 <= x342 <= 1
 0 <= x343 <= 1
Binaries
 x1  x2  x3  x4  x5  x6  x7  x8  x9  x10  x11  x12  x13  x14  x15  x16  x17 
 x18  x19  x20  x21  x22  x23  x24  x25  x26  x27  x28  x29  x30  x31  x32 
 x33  x34  x35  x36  x37  x38  x39  x40  x41  x42  x43  x44  x45  x46  x47 
 x48  x49  x50  x51  x52  x53  x54  x55  x56  x57  x58  x59  x60  x61  x62 
 x63  x64  x65  x66  x67  x68  x69  x70  x71  x72  x73  x74  x75  x76  x77 
 x78  x79  x80  x81  x82  x83  x84  x85  x86  x87  x88  x89  x90  x91  x92 
 x93  x94  x95  x96  x97  x98  x99  x100  x101  x102  x103  x104  x105  x106 
 x107  x108  x109  x110  x111  x112  x113  x114  x115  x116  x117  x118  x119 
 x120  x121  x122  x123  x124  x125  x126  x127  x128  x129  x130  x131  x132 
 x133  x134  x135  x136  x137  x138  x139  x140  x141  x142  x143  x144  x145 
 x146  x147  x148  x149  x150  x151  x152  x153  x154  x155  x156  x157  x158 
 x159  x160  x161  x162  x163  x164  x165  x166  x167  x168  x169  x170  x171 
 x172  x173  x174  x175  x176  x177  x178  x179  x180  x181  x182  x183  x184 
 x185  x186  x187  x188  x189  x190  x191  x192  x193  x194  x195  x196  x197 
 x198  x199  x200  x201  x202  x203  x204  x205  x206  x207  x208  x209  x210 
 x211  x212  x213  x214  x215  x216  x217  x218  x219  x220  x221  x222  x223 
 x224  x225  x226  x227  x228  x229  x230  x231  x232  x233  x234  x235  x236 
 x237  x238  x239  x240  x241  x242  x243  x244  x245  x246  x247  x248  x249 
 x250  x251  x252  x253  x254  x255  x256  x257  x258  x259  x260  x261  x262 
 x263  x264  x265  x266  x267  x268  x269  x270  x271  x272  x273  x274  x275 
 x276  x277  x278  x279  x280  x281  x282  x283  x284  x285  x286  x287  x288 
 x289  x290  x291  x292  x293  x294  x295  x296  x297  x298  x299  x300  x301 
 x302  x303  x304  x305  x306  x307  x308  x309  x310  x311  x312  x313  x314 
 x315  x316  x317  x318  x319  x320  x321  x322  x323  x324  x325  x326  x327 
 x328  x329  x330  x331  x332  x333  x334  x335  x336  x337  x338  x339  x340 
 x341  x342  x343 
End
